NAME: random-91-4176
TYPE: TSP
COMMENT: size=91 seed=4176
DIMENSION: 184
EDGE_WEIGHT_TYPE: EUC_2D
NODE_COORD_SECTION
+0 32 621
-0 32 621
+1 752 514
-1 932 930
+2 556 543
-2 593 697
+3 502 224
-3 431 364
+4 658 600
-4 993 199
+5 607 795
-5 811 37
+6 709 808
-6 976 618
+7 777 544
-7 825 622
+8 0 886
-8 329 18
+9 577 998
-9 618 821
+10 135 631
-10 169 674
+11 520 79
-11 989 998
+12 858 998
-12 776 163
+13 784 388
-13 68 575
+14 767 540
-14 268 884
+15 353 634
-15 692 420
+16 336 14
-16 135 242
+17 949 579
-17 218 868
+18 181 336
-18 76 731
+19 25 113
-19 340 992
+20 208 163
-20 2 698
+21 617 4
-21 602 341
+22 445 78
-22 557 135
+23 25 711
-23 556 412
+24 176 754
-24 860 446
+25 955 634
-25 543 360
+26 385 619
-26 702 586
+27 287 697
-27 301 428
+28 315 607
-28 737 596
+29 443 688
-29 720 544
+30 547 570
-30 780 98
+31 56 660
-31 236 633
+32 571 390
-32 304 106
+33 763 237
-33 675 3
+34 678 760
-34 652 19
+35 632 373
-35 554 186
+36 834 611
-36 616 231
+37 316 176
-37 833 837
+38 398 546
-38 453 579
+39 601 567
-39 315 785
+40 650 173
-40 713 864
+41 542 589
-41 413 873
+42 884 673
-42 867 738
+43 440 869
-43 32 165
+44 568 76
-44 958 725
+45 787 656
-45 306 34
+46 985 754
-46 757 395
+47 180 602
-47 695 904
+48 331 182
-48 68 274
+49 508 562
-49 906 131
+50 525 916
-50 34 401
+51 354 864
-51 548 52
+52 887 856
-52 352 252
+53 661 551
-53 902 900
+54 287 702
-54 177 887
+55 60 544
-55 822 592
+56 579 737
-56 988 600
+57 905 907
-57 567 308
+58 207 277
-58 520 107
+59 332 926
-59 222 941
+60 73 188
-60 536 960
+61 460 51
-61 692 281
+62 920 525
-62 250 347
+63 45 533
-63 772 56
+64 778 882
-64 977 140
+65 624 780
-65 666 53
+66 574 285
-66 733 283
+67 26 839
-67 320 868
+68 884 828
-68 434 730
+69 180 273
-69 492 234
+70 706 103
-70 257 337
+71 411 375
-71 505 126
+72 205 538
-72 811 978
+73 453 777
-73 847 504
+74 396 122
-74 498 230
+75 499 256
-75 515 101
+76 355 938
-76 411 3
+77 282 18
-77 232 949
+78 521 991
-78 56 871
+79 573 411
-79 706 40
+80 932 437
-80 766 623
+81 165 183
-81 249 287
+82 995 535
-82 904 386
+83 625 202
-83 419 707
+84 302 38
-84 72 852
+85 645 999
-85 618 922
+86 9 473
-86 819 854
+87 886 298
-87 15 697
+88 702 97
-88 311 252
+89 526 515
-89 790 239
+90 174 838
-90 577 973
+91 584 888
-91 361 347
PRECEDENCE_SECTION
+0 -0
+1 -1
+2 -2
+3 -3
+4 -4
+5 -5
+6 -6
+7 -7
+8 -8
+9 -9
+10 -10
+11 -11
+12 -12
+13 -13
+14 -14
+15 -15
+16 -16
+17 -17
+18 -18
+19 -19
+20 -20
+21 -21
+22 -22
+23 -23
+24 -24
+25 -25
+26 -26
+27 -27
+28 -28
+29 -29
+30 -30
+31 -31
+32 -32
+33 -33
+34 -34
+35 -35
+36 -36
+37 -37
+38 -38
+39 -39
+40 -40
+41 -41
+42 -42
+43 -43
+44 -44
+45 -45
+46 -46
+47 -47
+48 -48
+49 -49
+50 -50
+51 -51
+52 -52
+53 -53
+54 -54
+55 -55
+56 -56
+57 -57
+58 -58
+59 -59
+60 -60
+61 -61
+62 -62
+63 -63
+64 -64
+65 -65
+66 -66
+67 -67
+68 -68
+69 -69
+70 -70
+71 -71
+72 -72
+73 -73
+74 -74
+75 -75
+76 -76
+77 -77
+78 -78
+79 -79
+80 -80
+81 -81
+82 -82
+83 -83
+84 -84
+85 -85
+86 -86
+87 -87
+88 -88
+89 -89
+90 -90
+91 -91
EOF
